proyfinal/src/viki/013/experimentInOfficeAgust.take6.output/3f3c2466-dee1-4d3a-a6b8-310d11d6ddd3.als.out
Reading from standard input... Use '--help' for help.
============================[ Problem Statistics ]=============================
|                                                                             |
|  Number of variables:         87638                                         |
|  Number of clauses:          161767                                         |
|  Parse time:                   0.03 s                                       |
|                                                                             |
============================[ Search Statistics ]==============================
| Conflicts |          ORIGINAL         |          LEARNT          | Progress |
|           |    Vars  Clauses Literals |    Limit  Clauses Lit/Cl |          |
===============================================================================
|       100 |   62266   104831   261932 |    38438      100     10 | 28.951 % |
|       250 |   62266   104831   261932 |    42281      250     51 | 28.951 % |
|       475 |   62266   104831   261932 |    46510      475    148 | 28.951 % |
|       812 |   50322   104787   261842 |    51161      810    111 | 42.580 % |
|      1318 |   50238    70889   178402 |    56277     1290     91 | 42.676 % |
|      2077 |   50238    70889   178402 |    61904     2049     72 | 42.676 % |
|      3216 |   50028    70061   176446 |    68095     3186     71 | 42.915 % |
|      4924 |   49730    68760   173317 |    74904     4728     63 | 43.255 % |
|      7486 |   49355    67078   169290 |    82395     7074     56 | 43.683 % |
|     11330 |   49071    66002   166813 |    90634     9829     51 | 44.007 % |
===============================================================================
restarts              : 62
conflicts             : 15732          (8064 /sec)
decisions             : 50298          (0.00 % random) (25782 /sec)
propagations          : 21178789       (10855812 /sec)
conflict literals     : 748062         (42.54 % deleted)
Memory used           : 33.59 MB
CPU time              : 1.95092 s

UNSATISFIABLE
